////////////////////////////////////////////////////////
//
//     Problema da dieta
//
//     ficha de aula: sensibilidade
//
//     não é necessário voltar a resolver nenhum problema
//     para responder às questões!
//
//
//     (mas é bom tirar teimas)
//
/////////////////////////////////////////////////////////
//     Problema inicial (serve para obter os relatórios)

min:        6 x1 + 8 x2 + 2 x3 + 1 x4 + 9 x5;
nutriente1: 1 x1 + 1 x2 + 1 x3        + 2 x5 >=  3;
nutriente2: 1 x1 + 4 x2        + 1 x4 + 1 x5 >=  5;
nutriente3: 2 x1 + 2 x2               + 2 x5 >=  4;

/////////////////////////////////////////////////////////
//     Questão 1: b2: 5 -> 8
/*
min:        6 x1 + 8 x2 + 2 x3 + 1 x4 + 9 x5;
nutriente1: 1 x1 + 1 x2 + 1 x3        + 2 x5 >=  3;
nutriente2: 1 x1 + 4 x2        + 1 x4 + 1 x5 >=  8;
nutriente3: 2 x1 + 2 x2               + 2 x5 >=  4;
*/
/////////////////////////////////////////////////////////
//     Questão 2: b2: 5 -> 9
/*
min:        6 x1 + 8 x2 + 2 x3 + 1 x4 + 9 x5;
nutriente1: 1 x1 + 1 x2 + 1 x3        + 2 x5 >=  3;
nutriente2: 1 x1 + 4 x2        + 1 x4 + 1 x5 >=  9;
nutriente3: 2 x1 + 2 x2               + 2 x5 >=  4;
*/
/////////////////////////////////////////////////////////
//     Questão 3: c1: 6 -> 7
/*
min:        7 x1 + 8 x2 + 2 x3 + 1 x4 + 9 x5;
nutriente1: 1 x1 + 1 x2 + 1 x3        + 2 x5 >=  3;
nutriente2: 1 x1 + 4 x2        + 1 x4 + 1 x5 >=  5;
nutriente3: 2 x1 + 2 x2               + 2 x5 >=  4;
*/
/////////////////////////////////////////////////////////
//     Questão 4: c5: 9 -> ?
/*
min:        6 x1 + 8 x2 + 2 x3 + 1 x4 + 7.9 x5;
nutriente1: 1 x1 + 1 x2 + 1 x3        + 2 x5 >=  3;
nutriente2: 1 x1 + 4 x2        + 1 x4 + 1 x5 >=  5;
nutriente3: 2 x1 + 2 x2               + 2 x5 >=  4;
*/
/////////////////////////////////////////////////////////
